56 90 34 13 71 33 66 74 88 71 78 25 34 91 30 69 62 72 53 10 96 88 25 74 69 30 63 98 78 36 47 50 86 83 89 14 18 59 54 18 20 68 27 68 17 91 33 29 20 16 
52 52 28 23 95 69 13 61 32 68 18 44 65 12 63 86 41 37 61 30 59 14 68 84 94 84 68 62 35 67 87 84 77 73 15 40 99 90 73 73 61 24 89 32 10 41 23 46 49 34 
88 98 49 28 43 98 53 52 84 66 23 80 36 21 23 91 61 96 64 45 76 30 45 88 66 94 61 28 89 31 35 13 82 47 24 31 57 62 60 26 60 38 28 90 64 74 33 33 30 52 
57 30 86 50 97 96 59 94 67 14 60 47 85 43 36 30 94 50 52 63 55 50 40 31 43 97 16 47 66 46 42 97 85 13 20 35 22 39 75 29 93 81 98 29 10 90 67 30 34 41 
1365.00
